qe/outputs/qe/qe_queries/T=5,eliminate=[I_0,I_1,I_2,I_3,I_4,L_2,L_3,L_4,C].smt2
; benchmark generated from python API
(set-info :status unknown)
(declare-fun A_2 () Real)
(declare-fun B () Real)
(declare-fun A_3 () Real)
(declare-fun S_1 () Real)
(declare-fun S_2 () Real)
(declare-fun S_3 () Real)
(declare-fun A_4 () Real)
(declare-fun S_4 () Real)
(declare-fun A_1 () Real)
(declare-fun L_1 () Real)
(declare-fun A_0 () Real)
(declare-fun L_0 () Real)
(declare-fun S_0 () Real)
(assert
 (let (($x3162 (<= (+ S_4 (* (- 1.0) A_4) (* (- 1.0) S_3) (* (- 1.0) B) A_2) 0.0)))
 (let (($x4377 (<= (+ (* (- 1.0) S_2) (* (- 1.0) L_1) (* (- 1.0) B) A_1) 0.0)))
 (let (($x1334 (<= (+ A_0 (* (- 1.0) S_1) (* (- 1.0) B) (* (- 1.0) L_1)) 0.0)))
 (let (($x1366 (>= B 0.0)))
 (let ((?x770 (* (- 1.0) A_2)))
 (let ((?x12090 (* 2.0 S_1)))
 (let ((?x819 (* (- 1.0) A_0)))
 (let ((?x1427 (* (- 1.0) S_4)))
 (let (($x16326 (<= (+ A_3 ?x1427 ?x819 L_0 ?x12090 B ?x770) 0.0)))
 (let (($x11725 (<= (+ (* (- (/ 1.0 3.0)) S_4) (* (- (/ 2.0 3.0)) A_0) (* (/ 2.0 3.0) L_0) S_1) 0.0)))
 (let (($x4382 (<= (+ S_1 L_1 B (* (- 1.0) A_1)) 0.0)))
 (let (($x2172 (<= (+ ?x1427 (* (- 1.0) L_1) A_3) 0.0)))
 (let (($x76601 (or $x2172 $x4382 (<= (+ A_2 ?x1427 ?x819 L_0 S_1 (* (- 1.0) L_1)) 0.0) $x11725 $x16326)))
 (let ((?x805 (* (- 1.0) A_1)))
 (let ((?x1753 (* (/ 1.0 2.0) S_3)))
 (let ((?x1244 (* (- (/ 1.0 2.0)) L_0)))
 (let ((?x1261 (* (/ 1.0 2.0) A_0)))
 (let (($x14261 (<= (+ ?x1261 ?x1244 ?x1753 L_1 ?x805) 0.0)))
 (let ((?x4119 (* (/ 1.0 3.0) A_3)))
 (let ((?x3969 (* (- (/ 1.0 3.0)) B)))
 (let ((?x3965 (* (- (/ 1.0 3.0)) A_4)))
 (let ((?x4099 (* (- (/ 2.0 3.0)) L_0)))
 (let ((?x3964 (* (/ 2.0 3.0) A_0)))
 (let ((?x4095 (* (/ 1.0 3.0) S_4)))
 (let (($x1994 (<= (+ A_2 (* (- 1.0) S_3) (* (- 1.0) L_1)) 0.0)))
 (let (($x1632 (= B 0.0)))
 (let (($x42297 (or $x1632 $x1994 (<= (+ ?x4095 ?x3964 ?x4099 ?x3965 L_1 ?x3969 ?x805 ?x4119) 0.0) (not $x14261))))
 (let ((?x2692 (* (/ 1.0 2.0) A_3)))
 (let ((?x2679 (* (- (/ 1.0 2.0)) B)))
 (let ((?x1237 (* (- 1.0) S_3)))
 (let ((?x2712 (* (- (/ 1.0 2.0)) A_4)))
 (let ((?x1309 (* (/ 1.0 2.0) S_4)))
 (let ((?x1763 (* (/ 1.0 2.0) A_1)))
 (let ((?x1809 (* (- (/ 1.0 2.0)) L_1)))
 (let (($x37119 (or $x1632 $x1994 (<= (+ ?x1809 ?x1763 ?x1309 ?x2712 ?x1237 ?x2679 ?x2692) 0.0) $x14261)))
 (let ((?x857 (* (- 1.0) A_3)))
 (let ((?x799 (* (- 1.0) B)))
 (let ((?x768 (* (- 1.0) L_1)))
 (let (($x76827 (or $x2172 $x4382 (<= (+ ?x819 L_0 ?x768 ?x799 A_1 A_2 ?x857) 0.0) $x11725 $x16326)))
 (let ((?x2230 (* (- 2.0) A_1)))
 (let ((?x2022 (* 3.0 L_1)))
 (let ((?x2310 (* 2.0 B)))
 (let ((?x3773 (* (- 2.0) L_0)))
 (let ((?x3472 (* 2.0 A_0)))
 (let (($x1340 (<= (+ ?x819 S_0 B L_1) 0.0)))
 (let ((?x759 (* (- 1.0) L_0)))
 (let (($x698 (= ?x768 ?x759)))
 (let (($x36758 (or $x698 $x1340 $x1632 (<= (+ ?x770 S_4 ?x3472 ?x3773 ?x2310 ?x2022 ?x2230) 0.0))))
 (let (($x1361 (<= (+ (* (/ 1.0 4.0) S_4) (* (/ 3.0 4.0) A_0) (* (- (/ 3.0 4.0)) L_0) L_1 ?x805) 0.0)))
 (let (($x36747 (or $x1361 $x1632 $x1994 (<= (+ (* (- (/ 2.0 3.0)) L_1) (* (/ 2.0 3.0) A_1) ?x4095 ?x1237) 0.0))))
 (let ((?x2270 (* (- 4.0) A_1)))
 (let ((?x1965 (* 4.0 B)))
 (let ((?x2077 (* 4.0 L_1)))
 (let ((?x4446 (* (- 3.0) L_0)))
 (let ((?x4547 (* 3.0 A_0)))
 (let ((?x2257 (* (- 3.0) A_1)))
 (let ((?x917 (* (- 1.0) A_4)))
 (let (($x36743 (or $x698 $x1340 $x1632 (<= (+ S_4 ?x3472 ?x3773 ?x917 ?x2022 ?x2310 ?x2257 A_3) 0.0))))
 (let (($x36671 (or $x698 $x1340 $x1632 (<= (+ ?x3472 ?x3773 S_3 ?x2022 (* 3.0 B) ?x2257) 0.0))))
 (let (($x2242 (<= (+ (* (- 2.0) L_1) (* 2.0 A_1) ?x1237 L_0 ?x819) 0.0)))
 (let (($x8225 (<= (+ A_3 ?x1427 S_2 B ?x770) 0.0)))
 (let (($x3035 (<= (+ (* (/ 1.0 2.0) L_1) (* (- (/ 1.0 2.0)) A_1) (* (- (/ 1.0 2.0)) S_4) S_2) 0.0)))
 (let (($x36527 (or $x698 $x1340 $x1632 (<= (+ ?x857 S_4 ?x3472 ?x3773 ?x2310 ?x2022 ?x2257 A_2) 0.0))))
 (let (($x36497 (or $x698 $x1340 $x1632 (<= (+ ?x857 S_4 A_0 ?x759 (* 2.0 L_1) B ?x805) 0.0))))
 (let (($x36278 (or $x1632 $x1994 (<= (+ ?x857 S_4 A_1 ?x1237) 0.0) (<= (+ ?x857 S_4 ?x1261 (* (- (/ 1.0 2.0)) S_3) ?x1244 L_1) 0.0))))
 (let ((?x20846 (* (/ 2.0 3.0) A_2)))
 (let ((?x4055 (* (- (/ 2.0 3.0)) B)))
 (let ((?x4113 (* (- (/ 1.0 3.0)) L_0)))
 (let ((?x4114 (* (/ 1.0 3.0) A_0)))
 (let ((?x4112 (* (/ 2.0 3.0) S_4)))
 (let ((?x4127 (* (- (/ 2.0 3.0)) A_3)))
 (let (($x36272 (or $x1632 $x1994 $x2242 (<= (+ ?x4127 ?x4112 ?x4114 ?x1237 ?x4113 ?x4055 ?x20846) 0.0))))
 (let (($x3962 (<= (+ ?x4112 ?x4114 ?x4113 (* (- (/ 2.0 3.0)) A_4) ?x1237 ?x4055 (* (/ 2.0 3.0) A_3)) 0.0)))
 (let (($x1592 (<= (+ ?x768 A_1 (* (- 1.0) S_2)) 0.0)))
 (let (($x25082 (or $x1592 (<= (+ ?x770 S_3 A_0 (* (- 1.0) S_2) ?x759 L_1) 0.0))))
 (let (($x9260 (<= (+ ?x1427 (* (- (/ 1.0 2.0)) A_0) (* (/ 1.0 2.0) L_0) (* (/ 3.0 2.0) S_2)) 0.0)))
 (let (($x22141 (or $x1592 (<= (+ ?x857 S_4 A_0 ?x759 (* (- 1.0) S_2) L_1) 0.0))))
 (let (($x16179 (<= (+ ?x857 A_0 S_3 ?x759 (* 2.0 L_1) B ?x2230 A_2) 0.0)))
 (let (($x23086 (<= (+ ?x770 S_4 ?x917 A_0 (* (- 1.0) S_2) ?x759 L_1 ?x799 A_3) 0.0)))
 (let ((?x1777 (* (/ 1.0 2.0) L_1)))
 (let ((?x1324 (* (- 1.0) S_2)))
 (let ((?x2498 (* (- (/ 1.0 2.0)) A_2)))
 (let (($x22025 (<= (+ (* (- (/ 1.0 3.0)) A_3) ?x4095 ?x3964 ?x4099 ?x1324 ?x3969 (* (/ 1.0 3.0) A_2)) 0.0)))
 (let (($x17440 (<= (+ (* (- (/ 1.0 2.0)) A_3) ?x1261 ?x1753 ?x1244 ?x1324 ?x2679 (* (/ 1.0 2.0) A_2)) 0.0)))
 (let (($x10052 (<= (+ (* (- (/ 1.0 2.0)) A_3) ?x1309 ?x1809 ?x1763 ?x1237 ?x2679 (* (/ 1.0 2.0) A_2)) 0.0)))
 (let (($x5134 (<= (+ ?x770 S_4 ?x917 A_0 ?x759 (* 2.0 L_1) ?x805 A_3) 0.0)))
 (let ((?x2235 (* 2.0 A_1)))
 (let ((?x2046 (* (- 2.0) L_1)))
 (let ((?x4110 (+ ?x1427 (* (- 2.0) A_0) (* 2.0 L_0) (* (- 3.0) L_1) (* (- 3.0) B) (* 3.0 A_1))))
 (let (($x75090 (or $x1632 $x2172 (<= ?x4110 0.0) (<= (+ A_2 ?x1427 ?x819 L_0 ?x2046 ?x799 A_1) 0.0) (<= (+ A_3 ?x1427 ?x819 L_0 ?x2046 ?x799 ?x2235 ?x770) 0.0))))
 (let ((?x1329 (* (/ 1.0 2.0) L_0)))
 (let ((?x1328 (* (- (/ 1.0 2.0)) A_0)))
 (let (($x11917 (<= (+ ?x1309 ?x1328 ?x1329 (* (- (/ 3.0 2.0)) A_4) (* (- (/ 3.0 2.0)) B) (* (/ 3.0 2.0) A_2)) 0.0)))
 (let (($x3171 (<= (+ A_3 ?x917) 0.0)))
 (let (($x15493 (or $x1592 (<= (+ ?x1309 ?x1261 ?x1244 ?x2712 ?x1324 ?x2679 (* (/ 1.0 2.0) A_2)) 0.0))))
 (let (($x76692 (or $x1632 $x1994 (<= (+ ?x819 L_0 ?x1237 ?x2046 (* (- 2.0) B) ?x2235) 0.0))))
 (let (($x11965 (<= (+ S_4 A_0 ?x759 ?x917 (* 2.0 L_1) B ?x2230 A_2) 0.0)))
 (let (($x34757 (or $x698 $x1340 $x1632 (<= (+ A_0 ?x759 S_2 (* 2.0 L_1) ?x2310 ?x2230) 0.0))))
 (let ((?x2309 (* (- 2.0) B)))
 (let (($x10505 (<= (+ L_1 ?x805 S_4 (* (- 2.0) A_4) ?x2309 (* 2.0 A_2)) 0.0)))
 (let (($x34173 (or $x698 $x1340 $x1632 (<= (+ ?x770 S_3 A_0 ?x759 (* 2.0 L_1) B ?x805) 0.0))))
 (let (($x1326 (<= (+ (* (/ 1.0 4.0) S_4) (* (/ 3.0 4.0) A_0) (* (- (/ 3.0 4.0)) L_0) ?x1324) 0.0)))
 (and (<= ?x768 ?x759) (or (not $x1361) $x1326) (or $x1361 $x1592) (or $x698 $x1340 $x4382) $x34173 (or $x3171 $x10505) $x34757 (or $x698 $x1340 $x1632 $x11965) $x76692 $x15493 (or $x1632 $x1994 (<= (+ ?x819 L_0 ?x1237 ?x12090) 0.0)) (or $x3171 $x11917) $x75090 (or $x698 $x1340 $x1632 $x5134) (or $x1632 (not $x2242) (<= (+ ?x768 ?x1237 ?x799 A_2) 0.0) $x10052) (or $x1592 $x17440) (or $x1592 $x22025) (or $x1592 (<= (+ ?x4095 ?x3964 ?x4099 ?x3965 ?x1324 ?x3969 ?x4119) 0.0)) (or $x1592 (<= (+ ?x3964 ?x4099 (* (/ 1.0 3.0) S_3) ?x1324) 0.0)) (or $x1592 (<= (+ ?x2498 ?x1309 A_0 ?x1324 ?x759 ?x1777) 0.0)) (or $x1592 $x23086) (or $x698 $x1340 $x1632 $x16179) $x22141 (or $x1632 $x2172 $x8225 $x9260) $x25082 (or $x1632 $x1994 $x2242 $x3962) $x36272 $x36278 $x36497 $x36527 (or $x1632 $x2172 $x3035 $x8225) (or (<= (+ ?x1309 ?x1261 ?x1244 ?x1237) 0.0) $x1632 $x1994 $x2242) $x36671 $x36743 (or $x698 $x1340 $x1632 (<= (+ S_4 ?x4547 ?x4446 ?x2077 ?x1965 ?x2270) 0.0)) $x36747 $x36758 $x76827 $x37119 $x42297 $x76601 $x1366 $x1334 (<= (+ ?x770 L_1 S_2) 0.0) (<= (+ S_4 ?x917 L_1) 0.0) (<= (+ L_1 ?x805 S_1) 0.0) (<= (+ ?x1237 S_2) 0.0) (<= (+ ?x1427 S_3) 0.0) (<= (+ S_3 L_1 ?x857) 0.0) (<= (+ ?x917 ?x799 A_3) 0.0) (<= (+ (* (- 1.0) S_1) S_0) 0.0) (<= (+ S_0 L_0 ?x819) 0.0) $x4377 $x3162 (<= (+ ?x1324 S_1) 0.0) (<= (+ ?x857 ?x799 A_2) 0.0)))))))))))))))))))))))))))))))))))))))))))))))))))))))))))))))))))))))))))))))))))))))))))))))))))))))))
(check-sat)
